400
400
280
279
279
278
278
278
277
277
277
276
276
276
276
276
273
273
272
272
272
272
271
271
271
271
271
270
269
269
268
268
267
267
266
266
266
265
265
263
263
263
263
262
262
262
262
262
261
261
261
261
260
260
259
258
258
257
256
256
255
255
255
255
254
254
254
253
252
251
251
251
250
250
250
249
249
249
249
249
248
247
247
246
245
245
245
245
244
244
243
243
243
242
241
241
239
239
238
238
238
237
237
236
236
235
235
235
234
234
234
234
233
233
232
232
231
230
230
230
230
229
228
228
228
228
227
225
225
225
224
222
222
222
221
219
218
217
216
216
216
215
215
215
215
214
214
214
213
213
213
212
212
210
210
210
209
208
208
208
207
207
207
206
206
205
205
204
204
203
203
203
203
202
202
201
199
199
198
198
198
197
197
196
196
195
195
194
194
193
191
191
191
190
190
189
187
187
186
186
186
185
185
184
183
183
183
183
182
182
181
179
179
178
178
177
177
176
176
176
176
175
175
174
174
174
174
173
173
172
172
172
171
171
171
171
170
170
170
170
169
169
169
169
168
167
167
167
167
166
166
166
166
165
165
165
165
164
164
163
161
161
160
160
159
159
159
159
158
157
157
156
156
155
155
155
153
152
150
149
149
148
148
147
147
146
144
144
143
143
139
139
139
138
138
138
138
138
137
137
137
135
135
133
133
132
132
132
132
132
132
132
131
131
131
131
130
130
130
129
129
128
128
127
126
126
126
126
125
125
124
124
124
124
124
123
123
121
119
119
117
115
114
113
112
111
109
108
108
108
107
106
106
106
105
105
105
105
105
104
104
104
104
104
103
99
99
99
98
98
97
97
96
94
94
94
94
93
93
93
93
92
92
92
92
91
91
90
90
89
88
88
88
88
87
87
86
86
86
83
82
81
